   7
         14          1         14
          6         15         20
          2         21         22
          1         23         23
          2         24         25
          1         26         26
          1         27         27
